(set-logic QF_SLIA)
(set-option :produce-models true)
(declare-const X String)
; ^(\([2-9]|[2-9])(\d{2}|\d{2}\))(-|.|\s)?\d{3}(-|.|\s)?\d{4}$
(assert (not (str.in_re X (re.++ (re.union (re.++ (str.to_re "(") (re.range "2" "9")) (re.range "2" "9")) (re.union ((_ re.loop 2 2) (re.range "0" "9")) (re.++ ((_ re.loop 2 2) (re.range "0" "9")) (str.to_re ")"))) (re.opt (re.union (str.to_re "-") re.allchar (str.to_re " ") (str.to_re "\u{09}") (str.to_re "\u{0a}") (str.to_re "\u{0c}") (str.to_re "\u{0d}"))) ((_ re.loop 3 3) (re.range "0" "9")) (re.opt (re.union (str.to_re "-") re.allchar (str.to_re " ") (str.to_re "\u{09}") (str.to_re "\u{0a}") (str.to_re "\u{0c}") (str.to_re "\u{0d}"))) ((_ re.loop 4 4) (re.range "0" "9")) (str.to_re "\u{0a}")))))
; ^(([A-Za-z]+[^0-9]*)([0-9]+[^\W]*)([\W]+[\W0-9A-Za-z]*))|(([A-Za-z]+[^\W]*)([\W]+[^0-9]*)([0-9]+[\W0-9A-Za-z]*))|(([\W]+[^A-Za-z]*)([A-Za-z]+[^0-9]*)([0-9]+[\W0-9A-Za-z]*))|(([\W]+[^0-9]*)([0-9]+[^A-Za-z]*)([A-Za-z]+[\W0-9A-Za-z]*))|(([0-9]+[^A-Za-z]*)([A-Za-z]+[^\W]*)([\W]+[\W0-9A-Za-z]*))|(([0-9]+[^\W]*)([\W]+[^A-Za-z]*)([A-Za-z]+[\W0-9A-Za-z]*))$
(assert (str.in_re X (re.union (re.++ (re.+ (re.union (re.range "A" "Z") (re.range "a" "z"))) (re.* (re.range "0" "9")) (re.+ (re.range "0" "9")) (re.* (re.comp (re.union (re.range "0" "9") (re.range "A" "Z") (re.range "a" "z") (str.to_re "_")))) (re.+ (re.comp (re.union (re.range "0" "9") (re.range "A" "Z") (re.range "a" "z") (str.to_re "_")))) (re.* (re.union (re.comp (re.union (re.range "0" "9") (re.range "A" "Z") (re.range "a" "z") (str.to_re "_"))) (re.range "0" "9") (re.range "A" "Z") (re.range "a" "z")))) (re.++ (re.+ (re.union (re.range "A" "Z") (re.range "a" "z"))) (re.* (re.comp (re.union (re.range "0" "9") (re.range "A" "Z") (re.range "a" "z") (str.to_re "_")))) (re.+ (re.comp (re.union (re.range "0" "9") (re.range "A" "Z") (re.range "a" "z") (str.to_re "_")))) (re.* (re.range "0" "9")) (re.+ (re.range "0" "9")) (re.* (re.union (re.comp (re.union (re.range "0" "9") (re.range "A" "Z") (re.range "a" "z") (str.to_re "_"))) (re.range "0" "9") (re.range "A" "Z") (re.range "a" "z")))) (re.++ (re.+ (re.comp (re.union (re.range "0" "9") (re.range "A" "Z") (re.range "a" "z") (str.to_re "_")))) (re.* (re.union (re.range "A" "Z") (re.range "a" "z"))) (re.+ (re.union (re.range "A" "Z") (re.range "a" "z"))) (re.* (re.range "0" "9")) (re.+ (re.range "0" "9")) (re.* (re.union (re.comp (re.union (re.range "0" "9") (re.range "A" "Z") (re.range "a" "z") (str.to_re "_"))) (re.range "0" "9") (re.range "A" "Z") (re.range "a" "z")))) (re.++ (re.+ (re.comp (re.union (re.range "0" "9") (re.range "A" "Z") (re.range "a" "z") (str.to_re "_")))) (re.* (re.range "0" "9")) (re.+ (re.range "0" "9")) (re.* (re.union (re.range "A" "Z") (re.range "a" "z"))) (re.+ (re.union (re.range "A" "Z") (re.range "a" "z"))) (re.* (re.union (re.comp (re.union (re.range "0" "9") (re.range "A" "Z") (re.range "a" "z") (str.to_re "_"))) (re.range "0" "9") (re.range "A" "Z") (re.range "a" "z")))) (re.++ (re.+ (re.range "0" "9")) (re.* (re.union (re.range "A" "Z") (re.range "a" "z"))) (re.+ (re.union (re.range "A" "Z") (re.range "a" "z"))) (re.* (re.comp (re.union (re.range "0" "9") (re.range "A" "Z") (re.range "a" "z") (str.to_re "_")))) (re.+ (re.comp (re.union (re.range "0" "9") (re.range "A" "Z") (re.range "a" "z") (str.to_re "_")))) (re.* (re.union (re.comp (re.union (re.range "0" "9") (re.range "A" "Z") (re.range "a" "z") (str.to_re "_"))) (re.range "0" "9") (re.range "A" "Z") (re.range "a" "z")))) (re.++ (str.to_re "\u{0a}") (re.+ (re.range "0" "9")) (re.* (re.comp (re.union (re.range "0" "9") (re.range "A" "Z") (re.range "a" "z") (str.to_re "_")))) (re.+ (re.comp (re.union (re.range "0" "9") (re.range "A" "Z") (re.range "a" "z") (str.to_re "_")))) (re.* (re.union (re.range "A" "Z") (re.range "a" "z"))) (re.+ (re.union (re.range "A" "Z") (re.range "a" "z"))) (re.* (re.union (re.comp (re.union (re.range "0" "9") (re.range "A" "Z") (re.range "a" "z") (str.to_re "_"))) (re.range "0" "9") (re.range "A" "Z") (re.range "a" "z")))))))
; ^[0,1]?\d{1}\/(([0-2]?\d{1})|([3][0,1]{1}))\/(([1]{1}[9]{1}[9]{1}\d{1})|([2-9]{1}\d{3}))$
(assert (str.in_re X (re.++ (re.opt (re.union (str.to_re "0") (str.to_re ",") (str.to_re "1"))) ((_ re.loop 1 1) (re.range "0" "9")) (str.to_re "/") (re.union (re.++ (re.opt (re.range "0" "2")) ((_ re.loop 1 1) (re.range "0" "9"))) (re.++ (str.to_re "3") ((_ re.loop 1 1) (re.union (str.to_re "0") (str.to_re ",") (str.to_re "1"))))) (str.to_re "/") (re.union (re.++ ((_ re.loop 1 1) (str.to_re "1")) ((_ re.loop 1 1) (str.to_re "9")) ((_ re.loop 1 1) (str.to_re "9")) ((_ re.loop 1 1) (re.range "0" "9"))) (re.++ ((_ re.loop 1 1) (re.range "2" "9")) ((_ re.loop 3 3) (re.range "0" "9")))) (str.to_re "\u{0a}"))))
(assert (> (str.len X) 10))
(check-sat)
